NAME : cgl_88.10431.tour
COMMENT : Length = 10431
COMMENT : Found by LKH-3 [Keld Helsgaun] Thu Jun 26 21:26:50 2025
TYPE : TOUR
DIMENSION : 89
TOUR_SECTION
86
87
40
43
42
88
39
41
44
45
36
37
38
59
58
46
47
48
60
49
56
57
53
55
52
51
54
50
66
67
68
69
70
71
72
74
73
78
80
79
77
75
76
81
82
83
89
63
64
65
62
61
5
4
1
3
2
19
20
18
17
16
14
15
10
9
13
12
11
8
7
6
21
22
23
25
24
26
27
28
35
34
29
31
30
33
32
84
85
-1
EOF
